10J3M/DAT/10J3MUNL-19.dat
10 3
10.1071 10.1071
29.6079 29.6079
20.9991 20.9991
7.4225 7.4225
17.308 17.308
36.0977 36.0977
4.7179 4.7179
39.578 39.578
16.3425 16.3425
4.1875 4.1875
186.3682