10J3M/SOL/10J3MUNL-19.sol
solution status: optimal solution found
objective value:                              84.8783
x#1#3                                               1 	(obj:0)
x#2#2                                               1 	(obj:0)
x#3#1                               0.439618173544103 	(obj:0)
x#3#2                               0.560381826455898 	(obj:0)
x#4#1                                               1 	(obj:0)
x#5#1                                               1 	(obj:0)
x#6#3                                               1 	(obj:0)
x#7#2                                               1 	(obj:0)
x#8#1                                               1 	(obj:0)
x#9#2                                0.32985418265541 	(obj:0)
x#9#3                                0.67014581734459 	(obj:0)
x#10#3                                              1 	(obj:0)
z                                             84.8783 	(obj:1)
